c colouring generated by benchmark framework
p edge 161 295
v 1 2
v 2 1
v 3 0
v 4 1
v 5 1
v 6 0
v 7 0
v 8 0
v 9 0
v 10 2
v 11 1
v 12 2
v 13 0
v 14 0
v 15 1
v 16 2
v 17 1
v 18 0
v 19 0
v 20 1
v 21 0
v 22 2
v 23 0
v 24 1
v 25 1
v 26 1
v 27 1
v 28 0
v 29 2
v 30 0
v 31 0
v 32 0
v 33 2
v 34 2
v 35 2
v 36 2
v 37 0
v 38 2
v 39 0
v 40 2
v 41 0
v 42 0
v 43 1
v 44 1
v 45 2
v 46 2
v 47 0
v 48 0
v 49 1
v 50 1
v 51 0
v 52 0
v 53 1
v 54 2
v 55 1
v 56 2
v 57 2
v 58 0
v 59 1
v 60 0
v 61 1
v 62 2
v 63 0
v 64 1
v 65 3
v 66 0
v 67 2
v 68 1
v 69 0
v 70 1
v 71 1
v 72 2
v 73 0
v 74 1
v 75 2
v 76 0
v 77 2
v 78 2
v 79 0
v 80 0
v 81 1
v 82 0
v 83 0
v 84 2
v 85 1
v 86 1
v 87 2
v 88 2
v 89 0
v 90 1
v 91 0
v 92 2
v 93 2
v 94 2
v 95 1
v 96 1
v 97 0
v 98 1
v 99 2
v 100 0
v 101 2
v 102 1
v 103 1
v 104 0
v 105 1
v 106 1
v 107 2
v 108 2
v 109 1
v 110 0
v 111 1
v 112 2
v 113 0
v 114 1
v 115 1
v 116 1
v 117 1
v 118 0
v 119 1
v 120 3
v 121 2
v 122 0
v 123 2
v 124 2
v 125 4
v 126 0
v 127 2
v 128 2
v 129 3
v 130 2
v 131 2
v 132 2
v 133 0
v 134 2
v 135 0
v 136 0
v 137 0
v 138 1
v 139 0
v 140 1
v 141 3
v 142 0
v 143 2
v 144 2
v 145 1
v 146 0
v 147 1
v 148 3
v 149 0
v 150 1
v 151 0
v 152 1
v 153 1
v 154 0
v 155 1
v 156 2
v 157 3
v 158 2
v 159 0
v 160 0
v 161 1
